NAME : problems/40-tsp/instance-11.tsp
COMMENT : No Comment
TYPE : TSP
DIMENSION: 40
EDGE_WEIGHT_TYPE : EUC_2D
NODE_COORD_SECTION
1 5839 205 
2 5834 9163 
3 7485 8392 
4 2109 8947 
5 3457 4301 
6 5435 7442 
7 3848 3965 
8 6094 8212 
9 9196 7178 
10 4997 2817 
11 7541 7021 
12 8087 1714 
13 1694 8006 
14 853 3566 
15 4081 3731 
16 1376 6837 
17 9849 2143 
18 3874 5332 
19 6576 239 
20 8399 4005 
21 7679 2069 
22 8603 7328 
23 5106 5238 
24 8549 6911 
25 1298 6073 
26 6520 4615 
27 5771 4067 
28 8102 2691 
29 9846 2404 
30 7929 6234 
31 1223 3185 
32 9777 654 
33 2249 9402 
34 9435 1088 
35 4965 3908 
36 6028 9114 
37 4560 5500 
38 8154 7358 
39 2109 5391 
40 4863 1994 
EOF
